************************************************************************
file with basedata            : md360_.bas
initial value random generator: 312996596
************************************************************************
projects                      :  1
jobs (incl. supersource/sink ):  22
horizon                       :  158
RESOURCES
  - renewable                 :  2   R
  - nonrenewable              :  2   N
  - doubly constrained        :  0   D
************************************************************************
PROJECT INFORMATION:
pronr.  #jobs rel.date duedate tardcost  MPM-Time
    1     20      0       30       15       30
************************************************************************
PRECEDENCE RELATIONS:
jobnr.    #modes  #successors   successors
   1        1          3           2   3   4
   2        3          3           6   7   8
   3        3          3           6  11  13
   4        3          3           5   8  12
   5        3          1          20
   6        3          2          10  20
   7        3          3           9  12  13
   8        3          2          15  17
   9        3          2          11  17
  10        3          1          14
  11        3          3          16  18  19
  12        3          3          17  19  21
  13        3          3          16  18  19
  14        3          1          15
  15        3          1          18
  16        3          1          21
  17        3          1          20
  18        3          1          21
  19        3          1          22
  20        3          1          22
  21        3          1          22
  22        1          0        
************************************************************************
REQUESTS/DURATIONS:
jobnr. mode duration  R 1  R 2  N 1  N 2
------------------------------------------------------------------------
  1      1     0       0    0    0    0
  2      1     6       4    7    9    4
         2     8       1    7    8    4
         3     8       3    7    8    3
  3      1     4      10    8    3    9
         2     8       5    5    3    4
         3    10       4    5    2    4
  4      1     1       8    8    7    4
         2     5       8    8    7    3
         3     7       8    7    5    3
  5      1     2       6    4    9    7
         2     9       3    3    8    3
         3     9       6    3    5    1
  6      1     4       7    7    4    9
         2     7       7    6    3    5
         3     8       4    4    1    2
  7      1     3       6    5    4    5
         2     3       6    3    5    4
         3     7       5    2    4    3
  8      1     3       7    8    8    4
         2     7       7    8    7    4
         3     9       6    7    5    3
  9      1     3       9    6    7    8
         2     3      10    6    5    8
         3     5       9    4    3    7
 10      1     3       8    7    7    5
         2     4       8    4    5    5
         3    10       8    4    2    5
 11      1     2       6    4    6    3
         2    10       3    2    6    1
         3    10       4    3    5    1
 12      1     3       7   10    7    8
         2     5       7    9    6    8
         3     8       7    8    3    7
 13      1     3       3    9    4    7
         2     3       4    9    3    7
         3     4       3    5    2    5
 14      1     1       3   10    9   10
         2     8       2    9    7    6
         3    10       1    6    6    6
 15      1     4       6    3    2    4
         2     5       4    3    2    3
         3     7       3    2    1    1
 16      1     6       5   10    9    7
         2     6       6   10   10    6
         3    10       4    9    9    6
 17      1     1      10    3    5    6
         2     3       7    2    4    3
         3     5       7    1    4    2
 18      1     4       9    5    6    8
         2     8       5    4    4    1
         3     8       4    4    5    1
 19      1     3       9    6    5    6
         2     5       2    4    4    5
         3     5       1    5    4    2
 20      1     1       5    6    6    2
         2     4       5    6    5    2
         3     9       3    6    4    1
 21      1     8       7    3    9    9
         2     8       9    2    9    9
         3     9       5    2    9    9
 22      1     0       0    0    0    0
************************************************************************
RESOURCEAVAILABILITIES:
  R 1  R 2  N 1  N 2
   29   32   97   85
************************************************************************
MAXIMAL LAGS:
from  to  type  delay
    1   12   ES      0
    1    2   ES      0
    2   12   ES      0
    1    3   ES      0
    3   12   ES      0
    1    4   ES      0
    4   12   ES      0
    1    5   ES      0
    5   12   ES      0
    1    6   ES      0
    6   12   ES      0
    1    7   ES      0
    7   12   ES      0
    1    8   ES      0
    8   12   ES      0
    1    9   ES      0
    9   12   ES      0
    1   10   ES      0
   10   12   ES      0
    1   11   ES      0
   11   12   ES      0
    1   12   ES      0
    2    6   SS     -7
    2    6   SE      8
    2    6   ES     -5
    2    6   EE     -9
    2    7   SS      0
    2    7   SE      7
    2    7   ES      3
    2    7   EE      7
    2    8   SS     -8
    2    8   SE     11
    2    8   ES     10
    2    8   EE     11
    3    6   SS    -11
    3    6   SE     11
    3    6   ES      1
    3    6   EE      2
    3   11   SS     -1
    3   11   SE     -4
    3   11   ES      6
    3   11   EE     -5
    3   13   SS      7
    3   13   SE     -6
    3   13   ES     -3
    3   13   EE     -5
    4    5   SS      9
    4    5   SE      6
    5    4   SE      0
    4    5   ES      0
    4    5   EE      6
    4    8   SS    -12
    4    8   SE     -4
    4    8   ES     -2
    4    8   EE     -6
    5   20   SS     11
    5   20   SE     12
    5   20   ES      9
    5   20   EE      6
    6   10   SS     -7
    6   10   SE     10
    6   10   ES     -1
    6   10   EE     -7
    6   20   SS      4
    6   20   SE      3
    6   20   ES      5
    6   20   EE     10
    7    9   SS     -5
    7    9   SE     -2
    7    9   ES      2
    7    9   EE     -6
    7   13   SS     -5
    7   13   SE      4
    7   13   ES     -9
    7   13   EE     -5
    8   15   SS     -5
    8   15   SE    -12
    8   15   ES      3
    8   15   EE     -5
    8   17   SS     -4
    8   17   SE     -2
    8   17   ES     -5
    8   17   EE      8
    9   11   SS      9
    9   11   SE     -6
    9   11   ES    -11
    9   11   EE     -7
    9   17   SS     -5
    9   17   SE      1
    9   17   ES     -3
    9   17   EE     -9
   10   14   SS     -7
   10   14   SE     -8
   10   14   ES     -3
   10   14   EE     12
   11   16   SS      3
   11   16   SE     -4
   11   16   ES    -12
   11   16   EE      8
   11   18   SS      6
   11   18   SE      5
   11   18   ES     -1
   11   18   EE     -6
   11   19   SS     10
   11   19   SE      2
   11   19   ES     -7
   11   19   EE    -11
   12   17   SS     -5
   12   17   SE     -5
   12   17   ES     -1
   12   17   EE    -11
   12   19   SS     -2
   12   19   SE    -10
   12   19   ES      0
   12   19   EE    -11
   12   21   SS     -8
   12   21   SE     -5
   12   21   ES     -8
   12   21   EE     -2
   13   16   SS     -9
   13   16   SE    -12
   13   16   ES      3
   13   16   EE     10
   13   18   SS    -10
   13   18   SE     -1
   13   18   ES     -1
   13   18   EE     -2
   13   19   SS      5
   13   19   SE      3
   13   19   ES    -11
   13   19   EE      6
   14   15   SS     -4
   14   15   SE      8
   14   15   ES     10
   14   15   EE    -11
   15   18   SS     -4
   15   18   SE     -8
   15   18   ES     -8
   15   18   EE      8
   16   21   SS      9
   16   21   SE      9
   16   21   ES     -3
   16   21   EE     -2
   17   20   SS      0
   17   20   SE     -3
   17   20   ES    -10
   17   20   EE    -10
   18   21   SS      6
   18   21   SE      7
   18   21   ES     -7
   18   21   EE     -1
   19   22   SS     -1
   19   22   SE    -10
   19   22   ES     -8
   19   22   EE     -2
   20   22   SS     -5
   20   22   SE      4
   20   22   ES    -11
   20   22   EE      3
   21   22   SS     12
   21   22   SE      4
   21   22   ES    -10
   21   22   EE      6
************************************************************************
